StudentsNr = 10;
InstructorsNr = 78;
DaysNr = 2;
SlotsPerDay = 15;
AvailabilitySlotsLenght = 3;
RoomNr = 1;
ProgrammNr = 1;
DegreeNr = 3;
RolesNr = 4;
CoursesNr = 5;
InstructorsProgramm = [{1}, {1}, {1}, {1}, {1}, {1}, {1}, {1}, {1}, {1}, {1}, {1}, {1}, {1}, {1}, {1}, {1}, {1}, {1}, {1}, {1}, {1}, {1}, {1}, {1}, {1}, {1}, {1}, {1}, {1}, {1}, {1}, {1}, {1}, {1}, {1}, {1}, {1}, {1}, {1}, {1}, {1}, {1}, {1}, {1}, {1}, {1}, {1}, {1}, {1}, {1}, {1}, {1}, {1}, {1}, {1}, {1}, {1}, {1}, {1}, {1}, {1}, {1}, {1}, {1}, {1}, {1}, {1}, {1}, {1}, {1}, {1}, {1}, {1}, {1}, {1}, {1}, {1}];
InstructorRolesPerProgramm = [|{2, 5, 7, 8, 14, 15, 22, 23, 29, 31, 33, 34, 36, 37, 38, 39, 41, 42, 43, 45, 47, 48, 49, 52, 55, 56, 57, 58, 60, 62, 63, 69, 72, 74, 75, 78}, {3, 5, 6, 8, 9, 11, 12, 16, 17, 18, 19, 23, 29, 30, 34, 39, 48, 50, 51, 53, 54, 55, 57, 60, 61, 65, 68, 70, 74, 75, 76, 77, 78}, {2, 4, 5, 6, 8, 9, 14, 15, 17, 24, 25, 26, 27, 32, 33, 34, 35, 40, 42, 43, 45, 48, 49, 50, 51, 54, 55, 61, 66, 69, 74, 76}, {1, 4, 5, 15, 16, 19, 23, 24, 25, 31, 32, 35, 40, 41, 42, 45, 47, 50, 56, 61, 65, 66, 70, 76}|];
InstructorsAvailability = [|1, 1, 1, 1, 1, 1, 1, 1, 1, 1, |0, 1, 1, 0, 0, 1, 1, 0, 1, 0, |0, 1, 1, 1, 1, 0, 1, 1, 0, 0, |1, 1, 0, 0, 1, 1, 1, 1, 0, 1, |1, 1, 1, 1, 1, 1, 1, 1, 1, 1, |1, 1, 1, 1, 0, 1, 1, 1, 1, 1, |0, 1, 0, 1, 1, 0, 1, 1, 1, 1, |0, 0, 0, 0, 1, 1, 1, 0, 0, 0, |1, 1, 1, 0, 1, 1, 1, 1, 1, 1, |1, 1, 1, 0, 1, 1, 1, 1, 1, 1, |1, 1, 1, 0, 0, 0, 0, 1, 1, 0, |0, 0, 1, 1, 1, 1, 0, 0, 1, 1, |0, 1, 1, 1, 1, 1, 1, 0, 1, 1, |0, 0, 0, 0, 1, 1, 1, 1, 1, 1, |0, 0, 1, 0, 1, 1, 1, 1, 0, 0, |1, 1, 0, 1, 1, 1, 0, 1, 1, 0, |1, 1, 1, 1, 1, 1, 1, 1, 1, 1, |0, 0, 0, 0, 0, 0, 1, 1, 1, 1, |1, 1, 1, 0, 0, 0, 0, 1, 1, 1, |0, 1, 0, 0, 1, 1, 1, 1, 0, 1, |1, 0, 1, 1, 1, 1, 1, 1, 1, 0, |1, 1, 1, 1, 1, 1, 1, 1, 1, 1, |1, 1, 1, 1, 1, 1, 0, 1, 1, 1, |0, 1, 1, 1, 1, 0, 1, 1, 1, 1, |0, 0, 0, 1, 0, 0, 0, 1, 0, 0, |1, 1, 1, 0, 1, 1, 1, 1, 1, 1, |0, 1, 1, 0, 0, 1, 1, 1, 1, 1, |0, 1, 0, 1, 0, 1, 1, 1, 1, 1, |1, 1, 1, 1, 1, 1, 1, 1, 1, 1, |1, 1, 1, 1, 1, 1, 0, 1, 1, 1, |1, 0, 0, 0, 1, 1, 1, 0, 0, 1, |0, 1, 1, 1, 1, 1, 1, 1, 1, 1, |1, 1, 1, 0, 0, 1, 1, 1, 1, 1, |0, 0, 1, 1, 0, 0, 0, 0, 1, 1, |0, 0, 0, 1, 1, 1, 1, 1, 1, 0, |0, 1, 1, 1, 0, 1, 1, 1, 1, 1, |1, 1, 1, 1, 0, 1, 1, 1, 1, 1, |0, 1, 1, 1, 0, 1, 1, 1, 1, 1, |0, 0, 1, 1, 1, 1, 1, 1, 1, 0, |1, 1, 1, 1, 1, 1, 1, 1, 1, 1, |0, 1, 1, 0, 1, 0, 1, 0, 0, 0, |1, 1, 1, 1, 0, 1, 1, 1, 1, 1, |1, 1, 1, 1, 1, 1, 1, 1, 1, 1, |0, 0, 1, 1, 1, 1, 1, 0, 0, 0, |0, 1, 1, 1, 1, 1, 1, 1, 1, 1, |1, 1, 1, 1, 1, 1, 1, 1, 1, 1, |1, 0, 1, 1, 1, 1, 1, 1, 1, 0, |1, 0, 1, 1, 1, 0, 1, 1, 1, 1, |1, 1, 1, 1, 1, 1, 1, 1, 1, 1, |0, 1, 1, 1, 1, 1, 0, 0, 1, 0, |1, 1, 1, 0, 0, 1, 1, 1, 1, 1, |1, 1, 1, 1, 1, 1, 1, 0, 1, 1, |0, 0, 1, 1, 1, 1, 0, 0, 0, 0, |0, 1, 1, 1, 1, 1, 1, 1, 1, 1, |0, 1, 1, 1, 1, 1, 1, 0, 0, 0, |1, 1, 1, 1, 0, 1, 0, 1, 1, 1, |1, 1, 1, 1, 1, 1, 1, 0, 1, 1, |1, 1, 1, 1, 1, 1, 1, 1, 0, 0, |0, 0, 0, 0, 0, 0, 1, 1, 1, 1, |0, 0, 1, 1, 1, 1, 1, 1, 1, 1, |1, 0, 0, 1, 1, 1, 1, 1, 0, 1, |1, 1, 1, 1, 1, 1, 1, 1, 1, 1, |0, 1, 1, 1, 1, 1, 1, 0, 0, 1, |1, 1, 1, 1, 1, 1, 1, 1, 1, 1, |1, 1, 1, 1, 1, 1, 1, 1, 1, 1, |0, 1, 0, 1, 1, 1, 1, 1, 0, 1, |0, 0, 0, 0, 1, 1, 1, 1, 1, 1, |0, 1, 1, 0, 0, 1, 1, 1, 1, 1, |0, 0, 0, 0, 0, 0, 1, 1, 1, 1, |0, 0, 1, 1, 1, 1, 1, 1, 1, 1, |0, 0, 1, 1, 1, 0, 1, 1, 1, 1, |0, 1, 1, 1, 0, 1, 1, 1, 1, 1, |1, 1, 1, 1, 0, 1, 1, 1, 1, 1, |1, 1, 1, 1, 1, 0, 1, 1, 1, 1, |0, 0, 1, 1, 1, 1, 1, 1, 1, 1, |0, 1, 1, 1, 1, 1, 1, 1, 1, 1, |1, 1, 1, 1, 1, 1, 1, 1, 1, 1, |1, 1, 1, 1, 1, 1, 1, 1, 1, 1|];
StudentsProgramm = [1, 1, 1, 1, 1, 1, 1, 1, 1, 1];
StudentsDegree = [1, 2, 2, 1, 2, 3, 2, 2, 2, 3];
StudentsSupervisorId = [13, 37, 51, 43, 49, 7, 73, 57, 55, 75];
StudentsCourseIds = [{1, 2, 3, 4, 5}, {2}, {5}, {1, 2, 3, 4, 5}, {5}, {1, 2, 3, 4, 5}, {4}, {2}, {3}, {1, 2, 3, 4, 5}];
StudentsAvailability = [|0, 1, 1, 0, 1, 1, 1, 1, 1, 1, |0, 0, 1, 1, 0, 1, 1, 1, 0, 1, |0, 0, 0, 0, 0, 0, 1, 1, 1, 0, |0, 1, 0, 1, 1, 1, 1, 1, 1, 1, |0, 0, 0, 0, 1, 1, 1, 0, 1, 1, |1, 1, 1, 1, 1, 1, 1, 1, 1, 1, |1, 1, 1, 1, 1, 1, 0, 0, 0, 0, |0, 0, 0, 0, 0, 0, 1, 1, 1, 1, |1, 1, 1, 1, 1, 1, 1, 1, 1, 1, |0, 1, 1, 1, 1, 1, 1, 1, 0, 0|];
TheoryticalMinCard = [0, 0, 0, 0, 0, 0, 1, 0, 0, 0];
CoursesInstructorIds = [{2, 6, 7, 12, 15, 16, 22, 24, 25, 28, 30, 32, 34, 36, 37, 38, 40, 46, 47, 49, 53, 55, 56, 59, 60, 66, 67, 74, 78}, {4, 7, 11, 14, 15, 16, 17, 21, 25, 28, 30, 31, 35, 36, 38, 47, 51, 55, 56, 57, 58, 59, 60, 63, 64, 67, 68, 69, 77, 78}, {1, 2, 3, 4, 6, 9, 11, 12, 14, 16, 17, 18, 19, 21, 24, 30, 31, 32, 36, 37, 40, 41, 50, 51, 52, 54, 55, 56, 57, 59, 61, 63, 64, 65, 71}, {2, 6, 7, 8, 10, 11, 12, 13, 14, 16, 19, 21, 22, 23, 27, 28, 29, 30, 32, 33, 34, 35, 37, 38, 39, 41, 42, 44, 48, 49, 51, 54, 55, 56, 59, 61, 63, 65, 67, 69, 70, 72, 76, 77}, {6, 8, 9, 11, 12, 14, 16, 17, 18, 19, 20, 21, 23, 24, 26, 29, 30, 32, 33, 34, 35, 36, 38, 40, 41, 45, 46, 47, 52, 53, 54, 55, 56, 57, 59, 61, 63, 64, 65, 67, 69, 73, 74, 75, 77, 78}];
RolesDemands = [32, 1, 28, 11];
RolesContinuity = [];
ExamLen = [1, 1, 1, 1, 1, 1, 1, 1, 1, 1];
LunchTsMinLen = 0;
LunchStarts = [5..9, 22..24];
SupervisorAvailable = 0;
OptimalLunchLenght = [1, 0];
OptimalStartTs = [2, 0];
OptimalFinishTs = [0, 15];
MinimizeRooms = 200;
RolesSoftContinuity = [|1, 2, 3, 4|1, 3, 1, 4|];
SameDegreeInRoom = 10;
Mergeability = 2;
